!QMMM revPBE D4 DEF2-TZVP
%QMMM 
 QMATOMS {1487:1497} {2459:2533} END 
 ORCAFFFilename "myo_step1.prms"
END
%PAL NPROCS 8 END

* xyz 0 1
N          25.7050000000    11.1030000000   -10.9360000000
H          25.6188695111    11.2232902197    -9.9065769568
H          25.5256494807    10.1093345655   -11.1851225232
H          25.0105025405    11.7108506559   -11.4153646785
C          27.0830000000    11.4840000000   -11.3690000000
H          27.7802067498    10.9638731862   -10.7291238623
C          27.3410000000    11.1140000000   -12.8560000000
H          26.5550489697    11.5782676786   -13.4889501738
C          28.7110000000    11.6030000000   -13.3190000000
H          29.4934659141    11.2869279743   -12.5963890619
H          28.7147602958    12.7121030838   -13.3832674905
H          28.9508651690    11.1698271549   -14.3135250563
C          27.2140000000     9.6070000000   -13.0690000000
H          26.1927882053     9.2671655034   -12.7933916086
H          27.9499796795     9.0716852336   -12.4317982165
H          27.3939757848     9.3595561750   -14.1370048553
C          27.3220000000    12.9780000000   -11.1450000000
O          26.5680000000    13.8200000000   -11.6440000000
N          28.3700000000    13.2970000000   -10.3890000000
H          28.9318754310    12.6036601979    -9.9448231789
C          28.7650000000    14.6840000000   -10.1610000000
H          27.8673073334    15.2637081088   -10.0054283416
C          29.6900000000    14.8030000000    -8.9430000000
H          30.2421258084    15.7587639934    -9.0493526083
H          30.4081574858    13.9599855348    -8.9997012659
C          29.0950000000    14.7870000000    -7.5330000000
H          28.1586879118    15.3846239394    -7.5254689812
C          28.7850000000    13.3660000000    -7.0800000000
H          29.7138766644    12.7565340057    -7.0722318539
H          28.0586941486    12.8967165641    -7.7775005145
H          28.3616282893    13.3803939307    -6.0529638224
C          30.0480000000    15.4680000000    -6.5540000000
H          30.2195470121    16.5224223534    -6.8591001857
H          31.0242581852    14.9378037197    -6.5458783670
H          29.6099616280    15.4609628559    -5.5330558468
C          29.4610000000    15.2690000000   -11.3840000000
O          30.1860000000    14.5690000000   -12.0960000000
N          29.2280000000    16.5570000000   -11.6210000000
H          28.5553811951    17.0779774094   -11.1014531186
C          29.9430000000    17.2880000000   -12.6570000000
H          30.0449764732    16.6403200919   -13.5150700130
C          29.1800000000    18.5600000000   -13.0370000000
H          28.1169253743    18.3083068188   -13.2387560703
H          29.6336643052    19.0063596551   -13.9475681664
O          29.2270000000    19.5200000000   -11.9910000000
H          28.5635670467    19.2483507312   -11.3525147681
C          31.3440000000    17.6400000000   -12.1560000000
O          31.6110000000    17.5850000000   -10.9520000000
N          32.2350000000    17.9920000000   -13.0810000000
H          32.0288662636    17.9499311087   -14.0553847850
C          33.5760000000    18.4640000000   -12.7290000000
H          34.0480628840    17.7072867543   -12.1201460178
C          34.4050000000    18.7250000000   -13.9920000000
H          33.7979981073    19.3500846207   -14.6799182716
H          34.6097091518    17.7481931171   -14.4781646901
C          35.7490000000    19.4350000000   -13.7620000000
H          35.5700010885    20.3417327143   -13.1462640505
H          36.1627756904    19.7381807000   -14.7469907238
C          36.7910000000    18.5780000000   -13.0530000000
O          36.5940000000    17.3500000000   -12.9230000000
O          37.8260000000    19.1400000000   -12.6290000000
C          33.5140000000    19.7200000000   -11.8580000000
O          34.2880000000    19.8610000000   -10.9080000000
N          32.5930000000    20.6240000000   -12.1920000000
H          32.0214666996    20.5182191672   -13.0017962261
C          32.3570000000    21.8290000000   -11.3980000000
H          31.5445245339    22.3773836896   -11.8513339424
H          33.2592583722    22.4224125827   -11.4100022426
C          31.9960000000    21.4920000000    -9.9610000000
O          32.4880000000    22.1240000000    -9.0230000000
N          31.1420000000    20.4840000000    -9.7950000000
H          30.7314264730    20.0096456264   -10.5696089898
C          30.7480000000    20.0040000000    -8.4730000000
H          30.4850038778    20.8616429962    -7.8718185003
C          29.5620000000    19.0430000000    -8.5720000000
H          29.5038031128    18.4547101121    -7.6319291424
H          29.7389033609    18.3488248049    -9.4205464552
C          28.2210000000    19.7480000000    -8.7900000000
H          28.3520790876    20.5326302287    -9.5650393904
H          27.9093646086    20.2249840313    -7.8366469718
C          27.1100000000    18.8130000000    -9.2410000000
O          27.4020000000    17.6800000000    -9.6760000000
O          25.9330000000    19.2210000000    -9.1640000000
C          31.9190000000    19.3640000000    -7.7200000000
O          32.0790000000    19.5890000000    -6.5210000000
N          32.7440000000    18.5880000000    -8.4260000000
H          32.5896238659    18.3814626873    -9.3890201104
C          33.9360000000    17.9910000000    -7.8140000000
H          33.6250658072    17.4923235119    -6.9080992433
C          34.6240000000    16.9920000000    -8.7530000000
H          35.6623138751    16.8250886259    -8.3959535047
H          34.6545691305    17.4268087997    -9.7744911383
C          33.9340000000    15.6600000000    -8.8300000000
C          33.3930000000    15.0820000000    -9.9430000000
H          33.3971260394    15.5195349749   -10.9303915562
N          32.8420000000    13.8620000000    -9.6250000000
H          32.4045828370    13.2563491342   -10.2529832593
C          33.0070000000    13.6350000000    -8.2830000000
C          33.6970000000    14.7460000000    -7.7480000000
C          34.0020000000    14.7590000000    -6.3770000000
H          34.5282684518    15.5844350577    -5.9208621950
C          33.6100000000    13.6720000000    -5.5940000000
H          33.8339051506    13.6692530838    -4.5375093696
C          32.6140000000    12.5440000000    -7.4970000000
H          32.0838765940    11.6982349032    -7.9093484669
C          32.9270000000    12.5790000000    -6.1610000000
H          32.6430088253    11.7495168924    -5.5305162685
C          34.9320000000    19.0450000000    -7.3330000000
O          35.5480000000    18.8800000000    -6.2820000000
N          35.0720000000    20.1290000000    -8.0950000000
H          34.5651631217    20.2506847627    -8.9447886397
C          35.9860000000    21.2130000000    -7.7250000000
H          36.9241006556    20.7689481004    -7.4268446184
C          36.2060000000    22.1780000000    -8.8980000000
H          36.7079120738    23.0900322184    -8.5117541969
H          35.2143050688    22.4598754236    -9.3103005294
C          37.0600000000    21.6010000000   -10.0400000000
H          37.2055626895    22.3875246040   -10.8105590082
H          36.5197091541    20.7424479205   -10.4922662525
C          38.4330000000    21.1170000000    -9.5830000000
O          39.0610000000    21.7150000000    -8.7070000000
N          38.9050000000    20.0270000000   -10.1810000000
H          38.4411085819    19.6579392960   -10.9863564112
H          39.7238199723    19.5764163733    -9.8253200198
C          35.5420000000    21.9610000000    -6.4650000000
O          36.3780000000    22.3760000000    -5.6600000000
N          34.2320000000    22.1210000000    -6.2950000000
H          33.5728308918    21.8677379611    -6.9986154661
C          33.6720000000    22.6810000000    -5.0600000000
H          34.1588618758    23.6263531226    -4.8718138263
C          32.1580000000    22.8800000000    -5.1880000000
H          31.7596232296    23.0684833812    -4.1697455721
H          31.7291388027    21.9326887939    -5.5749776071
C          31.6620000000    24.0130000000    -6.0930000000
H          32.2244635836    23.9918932534    -7.0507183466
C          30.1710000000    23.8580000000    -6.3790000000
H          29.5951637181    23.8856634482    -5.4292798780
H          29.9813218388    22.8850188936    -6.8805815610
H          29.8224027292    24.6884371276    -7.0294676937
C          31.9500000000    25.3740000000    -5.4760000000
H          33.0433357635    25.5011559803    -5.3251051199
H          31.4439024546    25.4571538689    -4.4905027604
H          31.5890991362    26.1792096708    -6.1510126319
C          33.9880000000    21.7910000000    -3.8560000000
O          34.3260000000    22.2890000000    -2.7780000000
N          33.8780000000    20.4790000000    -4.0560000000
H          33.5484590884    20.1089221074    -4.9207708872
C          34.2270000000    19.4880000000    -3.0370000000
H          33.7171695115    19.7586601206    -2.1243687991
C          33.8150000000    18.0490000000    -3.4750000000
H          34.2220551545    17.8470037350    -4.4885750451
C          34.3450000000    16.9930000000    -2.5030000000
H          34.0891734807    17.2726940223    -1.4586604738
H          35.4501332659    16.9197283380    -2.5899817734
H          33.8857764310    16.0068868047    -2.7287179222
C          32.3010000000    17.9410000000    -3.5890000000
H          31.9223171904    18.6640826166    -4.3427054194
H          31.8306385931    18.1710445447    -2.6091562599
H          32.0180365105    16.9151714662    -3.9081576156
C          35.7210000000    19.5470000000    -2.7020000000
O          36.1000000000    19.5760000000    -1.5310000000
N          36.5590000000    19.5860000000    -3.7330000000
H          36.2398735201    19.6282828408    -4.6765076623
C          38.0070000000    19.5690000000    -3.5410000000
H          38.2307993729    18.8552927615    -2.7621162187
C          38.7310000000    19.1830000000    -4.8380000000
H          39.8194723276    19.3284814832    -4.6766796932
H          38.3889573324    19.8730247988    -5.6372707313
C          38.5160000000    17.7450000000    -5.3330000000
H          37.4271665800    17.5281973887    -5.3712968389
C          39.1150000000    17.5600000000    -6.7180000000
H          40.2064762747    17.7657960993    -6.6925341949
H          38.6380054874    18.2635636828    -7.4333519972
H          38.9590325068    16.5148549552    -7.0609286765
C          39.0730000000    16.7030000000    -4.3570000000
H          38.5720808120    16.7982558705    -3.3699198177
H          40.1639175309    16.8603938067    -4.2177871017
H          38.8897832969    15.6803352745    -4.7505004441
C          38.5490000000    20.8810000000    -2.9690000000
O          39.5250000000    20.8740000000    -2.2190000000
N          37.9020000000    21.9960000000    -3.3030000000
H          37.1086868132    21.9929755732    -3.9067785261
C          38.3280000000    23.3010000000    -2.7940000000
H          39.4075024623    23.3242215076    -2.8080702087
C          37.7670000000    24.4460000000    -3.6390000000
H          37.7575551918    25.3718526983    -3.0255945474
H          36.7268853873    24.1946087963    -3.9365276923
N          38.3800000000    23.9990000000    -6.0450000000
H          37.7146784744    23.2617424388    -6.1612463373
C          38.5600000000    24.7120000000    -4.8800000000
C          39.2170000000    24.4430000000    -6.9660000000
H          39.2806338533    24.0557020583    -7.9821042675
N          39.9390000000    25.4150000000    -6.4370000000
C          39.5500000000    25.6010000000    -5.1320000000
H          40.0163212330    26.3506230343    -4.5052863801
C          38.0410000000    23.5180000000    -1.3080000000
O          38.8160000000    24.1890000000    -0.6260000000
N          36.9480000000    22.9500000000    -0.8010000000
H          36.2542359070    22.5049600375    -1.3619194558
C          36.7290000000    22.9650000000     0.6460000000
H          37.1049977188    23.9067023679     1.0168061624
C          35.2280000000    22.8020000000     1.0560000000
H          34.6028979631    23.4482886569     0.4038660149
C          34.7540000000    21.3560000000     0.9240000000
H          35.3603273718    20.6941727546     1.5787311017
H          34.8675094605    21.0153286242    -0.1273385358
H          33.6887606333    21.2778505003     1.2296335192
C          35.0050000000    23.3120000000     2.4800000000
H          35.2772166526    24.3870141214     2.5475554058
H          35.6396523202    22.7401039375     3.1902150567
H          33.9356541886    23.1986829144     2.7591287775
C          37.6510000000    21.9580000000     1.3430000000
O          38.1350000000    22.2190000000     2.4460000000
N          37.9210000000    20.8310000000     0.6820000000
H          37.5419997944    20.6355901608    -0.2191600112
C          38.8000000000    19.8100000000     1.2550000000
H          38.4879775864    19.6463557686     2.2756915487
C          38.7480000000    18.4930000000     0.4770000000
H          39.5093679307    18.5102215008    -0.3318176900
H          37.7402754049    18.3685411190     0.0262618399
C          39.0240000000    17.3340000000     1.3820000000
C          40.2010000000    16.6560000000     1.5190000000
H          41.1018884435    16.8609579416     0.9597222834
N          40.0720000000    15.6730000000     2.4740000000
H          40.7730239740    15.0509882677     2.7463672310
C          38.7990000000    15.7100000000     2.9800000000
C          38.1110000000    16.7520000000     2.3200000000
C          36.7730000000    17.0040000000     2.6600000000
H          36.2051159704    17.7896321757     2.1839186986
C          36.1730000000    16.2150000000     3.6370000000
H          35.1443715287    16.3981777365     3.9102624652
C          38.1930000000    14.9150000000     3.9600000000
H          38.7198622754    14.1162155116     4.4607388229
C          36.8850000000    15.1830000000     4.2740000000
H          36.3906574091    14.5879956468     5.0275219647
C          40.2420000000    20.2880000000     1.3860000000
O          40.9590000000    19.8650000000     2.2930000000
N          40.6540000000    21.1760000000     0.4800000000
H          40.0829119591    21.4443192867    -0.2916796369
C          41.9660000000    21.8150000000     0.5550000000
H          42.7163906750    21.0389994002     0.5852379443
C          42.1850000000    22.7190000000    -0.6530000000
H          41.4048846708    23.5093979654    -0.6848139824
H          42.1235584548    22.1221703574    -1.5880258900
H          43.1810758132    23.2063022625    -0.5850030888
C          42.1480000000    22.5990000000     1.8620000000
O          43.2640000000    22.7010000000     2.3760000000
N          41.0490000000    23.1330000000     2.3970000000
H          40.1599457424    23.0651119886     1.9513444945
C          41.0720000000    23.8560000000     3.6760000000
H          41.9959123554    24.4128142784     3.7254544743
C          39.8740000000    24.8070000000     3.8000000000
H          40.0086118934    25.4141811929     4.7196101203
H          38.9549308259    24.1931104615     3.9045161418
C          39.6770000000    25.7600000000     2.6270000000
H          38.8062803087    26.4162325217     2.8387359944
H          39.4655765686    25.1662445155     1.7124615416
C          40.9030000000    26.6310000000     2.3780000000
H          41.8111469144    25.9913614595     2.3673065165
H          40.9971788217    27.3745381608     3.1979170593
C          40.7880000000    27.3590000000     1.0530000000
H          40.0560542076    28.1897916808     1.1436097362
H          40.4642142601    26.6494578166     0.2618727859
N          42.0900000000    27.9450000000     0.6320000000
H          42.7946049978    27.1870772210     0.5286324128
H          42.4134753063    28.6233628669     1.3508791158
H          41.9717168100    28.4348020858    -0.2777816440
C          41.1020000000    22.8950000000     4.8610000000
O          41.7730000000    23.1600000000     5.8630000000
N          40.3640000000    21.7890000000     4.7450000000
H          39.7422110245    21.6509628893     3.9782687500
C          40.4130000000    20.7040000000     5.7290000000
H          40.0480711940    21.0941214208     6.6674410496
C          39.5530000000    19.4850000000     5.2880000000
H          39.8853456518    19.1486853154     4.2828468600
C          39.6880000000    18.3210000000     6.2790000000
H          39.5240139137    18.6821397780     7.3167897785
H          40.7072297854    17.8839725365     6.2124286737
H          38.9307506377    17.5406609803     6.0511875369
C          38.0950000000    19.8840000000     5.1330000000
H          37.9968624382    20.6813148094     4.3655502533
H          37.7041333498    20.2708254261     6.0983203884
H          37.4948790021    19.0061805729     4.8112206626
C          41.8610000000    20.2560000000     5.9310000000
O          42.3130000000    20.0630000000     7.0630000000
N          42.5850000000    20.1240000000     4.8210000000
H          42.2221445609    20.3718993304     3.9263591854
C          43.9550000000    19.6100000000     4.8300000000
H          43.9987663665    18.7831184661     5.5231997861
C          44.3610000000    19.1530000000     3.4310000000
H          45.4547665753    18.9604812061     3.4207807012
H          44.1320991247    19.9650827740     2.7087679053
C          43.6350000000    17.8860000000     2.9920000000
H          42.5398169867    18.0585741707     3.0585479664
H          43.9159136448    17.0564480417     3.6750573779
C          43.9670000000    17.4720000000     1.5780000000
O          44.3200000000    18.3480000000     0.7610000000
O          43.8670000000    16.2640000000     1.2850000000
C          44.9870000000    20.5740000000     5.4160000000
O          46.1610000000    20.2240000000     5.5530000000
N          44.5510000000    21.7830000000     5.7650000000
H          43.6441306201    22.1159658622     5.5187633294
C          45.3900000000    22.6940000000     6.5360000000
H          46.3508682632    22.7573890650     6.0472637833
C          44.7530000000    24.0680000000     6.6240000000
H          43.7611045449    23.9979616571     7.1195391374
H          44.6112957224    24.4851327137     5.6041106444
H          45.3997924708    24.7472307307     7.2194487509
C          45.6280000000    22.1200000000     7.9320000000
O          46.6880000000    22.3200000000     8.5220000000
N          44.6320000000    21.3970000000     8.4450000000
H          43.7979506139    21.2159910043     7.9301615702
C          44.6850000000    20.8210000000     9.7850000000
H          45.6728312358    20.4122869682     9.9377539908
C          44.3820000000    21.9030000000    10.8360000000
H          43.4013160810    22.3676161233    10.5993832626
H          45.1745943069    22.6796693054    10.7893563924
C          44.3250000000    21.3600000000    12.2600000000
O          44.8510000000    20.2590000000    12.5330000000
O          43.7430000000    22.0540000000    13.1140000000
C          43.6920000000    19.6630000000     9.8770000000
O          42.6240000000    19.7920000000    10.4800000000
N          44.0450000000    18.5340000000     9.2680000000
H          44.9303319663    18.4190091102     8.8242702985
C          43.1350000000    17.3860000000     9.2190000000
H          42.1656206816    17.7525478512     8.9159444462
C          43.6170000000    16.2760000000     8.2260000000
H          43.8581810633    16.7467342050     7.2493357942
C          44.8560000000    15.5360000000     8.7400000000
H          44.5875565391    14.9015338827     9.6116145101
H          45.6285515775    16.2680212166     9.0586896597
H          45.2661468439    14.8838715801     7.9395237723
C          42.4830000000    15.3050000000     7.9190000000
H          41.6301314029    15.8475132508     7.4578974856
H          42.1321477456    14.8245413263     8.8572517035
H          42.8338543454    14.5263277924     7.2084896749
C          42.7950000000    16.8380000000    10.6160000000
O          41.6490000000    16.4600000000    10.8710000000
N          43.7800000000    16.8390000000    11.5160000000
H          44.6968266400    17.1597113659    11.2919903567
C          43.5850000000    16.3710000000    12.8910000000
H          43.2040301504    15.3613864042    12.8497705407
C          44.9020000000    16.4100000000    13.6660000000
H          45.2951897610    17.4485843878    13.6986386478
H          45.6536872198    15.7616882311    13.1670889111
H          44.7383580611    16.0598048749    14.7075559471
C          42.5030000000    17.1680000000    13.6220000000
O          41.5970000000    16.5870000000    14.2220000000
N          42.6020000000    18.4940000000    13.5540000000
H          43.3574714024    18.9380030638    13.0790681271
C          41.6210000000    19.3940000000    14.1640000000
H          41.9306755824    20.4085994555    13.9614994900
H          41.6191998257    19.2105099393    15.2282582558
C          40.2170000000    19.1870000000    13.6230000000
O          39.2540000000    19.1370000000    14.3910000000
N          40.1060000000    19.0600000000    12.3000000000
H          40.8971982159    19.1292061449    11.6976894461
C          38.8210000000    18.8110000000    11.6390000000
H          38.1200834523    19.5586646250    11.9793847401
C          38.9710000000    18.8780000000    10.1160000000
H          38.0565298194    18.4540423712     9.6497184159
H          39.8495104646    18.2673553644     9.8180960044
N          40.3730000000    20.9240000000     9.6580000000
H          41.2052551684    20.5419684196    10.0594223094
C          39.1650000000    20.2650000000     9.5880000000
C          40.2500000000    22.1230000000     9.1160000000
H          41.0537296807    22.8547331239     9.0445475263
N          39.0070000000    22.2610000000     8.6910000000
C          38.3070000000    21.1140000000     8.9760000000
H          37.2612913910    21.0111770857     8.7150867290
C          38.2230000000    17.4620000000    12.0390000000
O          37.0180000000    17.3580000000    12.2780000000
N          39.0750000000    16.4390000000    12.1080000000
H          40.0419046099    16.5472483440    11.8915029865
C          38.6600000000    15.0920000000    12.5030000000
H          39.5231242541    14.4464362553    12.4353841506
H          37.8956996356    14.7654464843    11.8134235475
C          38.1090000000    15.0340000000    13.9150000000
O          37.1150000000    14.3500000000    14.1690000000
N          38.7580000000    15.7510000000    14.8320000000
H          39.6010800740    16.2382993025    14.6189955494
C          38.2810000000    15.8730000000    16.2100000000
H          38.1883227763    14.8777753115    16.6187233704
C          39.2480000000    16.7050000000    17.0580000000
H          38.7272457372    17.0008512897    17.9929514320
H          39.5135542725    17.6203909903    16.4884497992
C          40.5390000000    15.9820000000    17.4350000000
H          41.0579616229    15.6613294717    16.5067583210
H          40.2875414920    15.0854887176    18.0406562619
C          41.4850000000    16.8580000000    18.2390000000
O          41.9160000000    16.4870000000    19.3330000000
N          41.8060000000    18.0290000000    17.7040000000
H          42.4249829186    18.6471967237    18.1884511919
H          41.4289450921    18.2933506298    16.8163354570
C          36.8820000000    16.4840000000    16.2540000000
O          35.9810000000    15.9220000000    16.8740000000
N          36.7070000000    17.6180000000    15.5740000000
H          37.4559814009    18.0524132623    15.0802825845
C          35.4140000000    18.3070000000    15.5000000000
H          35.1164896578    18.5687638288    16.5045525627
C          35.5210000000    19.5650000000    14.6320000000
H          34.4983639726    19.8967505536    14.3530732728
H          36.0886575045    19.3177121691    13.7099063606
C          36.2240000000    20.7160000000    15.3340000000
O          36.7060000000    20.5470000000    16.4760000000
O          36.2920000000    21.8050000000    14.7260000000
C          34.2930000000    17.4150000000    14.9610000000
O          33.1900000000    17.4030000000    15.5080000000
N          34.5870000000    16.6740000000    13.8920000000
H          35.5022979468    16.6590561994    13.4974997160
C          33.5880000000    15.8320000000    13.2240000000
H          32.6688862083    16.3957565748    13.1653061305
C          34.0480000000    15.4100000000    11.7950000000
H          35.0889103405    15.0255290318    11.8457391748
C          33.1360000000    14.3200000000    11.2150000000
H          32.0913140975    14.6920933928    11.1479263685
H          33.1520093940    13.4243899921    11.8721761665
H          33.4797201739    14.0422656040    10.1956991867
C          34.0690000000    16.6310000000    10.8650000000
H          34.4779255362    17.4922179876    11.4338618698
H          33.0234899737    16.8583065484    10.5687554030
C          34.8960000000    16.4640000000     9.5970000000
H          34.5010687967    15.6200223816     8.9919775836
H          35.9531540379    16.2470668333     9.8608549638
H          34.8452915464    17.3915120008     8.9875705604
C          33.1670000000    14.6290000000    14.0810000000
O          31.9710000000    14.3860000000    14.2580000000
N          34.1420000000    13.8950000000    14.6210000000
H          35.1060908779    14.0988059877    14.4699871013
C          33.8500000000    12.7350000000    15.4760000000
H          33.1520441717    12.1029155969    14.9474263113
C          35.1230000000    11.9470000000    15.8140000000
H          34.8692009988    11.2458321104    16.6353883455
H          35.8755093800    12.6757970330    16.1791214513
C          35.7850000000    11.1260000000    14.7010000000
H          35.9609151027    11.7778150541    13.8188433627
C          37.1110000000    10.5500000000    15.1730000000
H          36.9490710787     9.8883771127    16.0506987977
H          37.7960963927    11.3724604475    15.4704152749
H          37.5748351913     9.9525642808    14.3592545991
C          34.8700000000    10.0140000000    14.1840000000
H          33.9338797073    10.4496278035    13.7738436708
H          34.6063229417     9.3246100566    15.0143433119
H          35.3816009252     9.4482801640    13.3762378685
C          33.1160000000    13.1260000000    16.7570000000
O          32.1790000000    12.4390000000    17.1750000000
N          33.5420000000    14.2300000000    17.3700000000
H          34.3270125881    14.7487284150    17.0407289968
C          32.8830000000    14.7520000000    18.5680000000
H          32.7807290207    13.9359602912    19.2677281646
C          33.6880000000    15.9120000000    19.2190000000
H          34.0052582409    16.6251015795    18.4285850891
C          32.8470000000    16.6520000000    20.2540000000
H          32.5293342607    15.9538003966    21.0576957085
H          31.9395408884    17.0743254015    19.7719073568
H          33.4434101531    17.4705911664    20.7105714976
C          34.9590000000    15.3580000000    19.8780000000
H          35.4148421259    14.6185939859    19.1865221824
H          34.6669380264    14.8415479758    20.8164199379
C          36.0090000000    16.4020000000    20.2170000000
H          35.5899532781    17.1493119299    20.9242805131
H          36.3302206911    16.9290693005    19.2932742178
H          36.8861973438    15.9150273894    20.6941127720
C          31.4320000000    15.1520000000    18.2640000000
O          30.5210000000    14.7860000000    19.0080000000
N          31.2210000000    15.8700000000    17.1600000000
H          31.9666079641    16.1903989611    16.5809452286
C          29.8660000000    16.2300000000    16.7350000000
H          29.3895675430    16.7463658824    17.5550210156
C          29.8820000000    17.1240000000    15.4880000000
H          30.6407941306    16.7272742300    14.7810056192
H          30.1771035200    18.1495853266    15.7947402388
C          28.5380000000    17.2040000000    14.7610000000
H          27.7486074754    16.7729200981    15.4127147495
H          28.5971651245    16.6076644419    13.8258070014
C          28.1660000000    18.6260000000    14.4140000000
H          27.4513576063    18.6282641770    13.5634453801
H          29.0806688283    19.1965847664    14.1457165719
N          27.5240000000    19.3170000000    15.5360000000
H          28.1061391598    19.6072999058    16.2943106276
C          26.2210000000    19.5870000000    15.6200000000
N          25.7450000000    20.2220000000    16.6830000000
H          26.3631016896    20.4972131489    17.4193477602
H          24.7680763638    20.4254673891    16.7479709986
N          25.3910000000    19.2330000000    14.6480000000
H          25.7404235397    18.7579286246    13.8404045702
H          24.4157626070    19.4411579970    14.7227146281
C          28.9990000000    14.9890000000    16.5110000000
O          27.8450000000    14.9540000000    16.9400000000
N          29.5680000000    13.9810000000    15.8490000000
H          30.4929619844    14.0492560804    15.4838765710
C          28.8830000000    12.7100000000    15.6110000000
H          27.9746852145    12.9171730363    15.0649272051
C          29.7780000000    11.7510000000    14.8120000000
H          30.7578705752    11.7077502361    15.3301256114
H          29.9192187911    12.1953422766    13.8054771589
C          29.3070000000    10.3030000000    14.6080000000
H          29.1314978787     9.8346751425    15.5998177412
C          28.0180000000    10.2430000000    13.7920000000
H          28.1216990999    10.8526198391    12.8689988362
H          27.1727884161    10.6458065902    14.3900119815
H          27.8032216455     9.1925506394    13.5010008592
C          30.4000000000     9.4680000000    13.9480000000
H          31.3095185529     9.4567147242    14.5859417250
H          30.6645454224     9.9036556942    12.9608455358
H          30.0481318737     8.4228463865    13.8134754800